============================[ Problem Statistics ]=============================|                                                                             ||  Number of variables:          4242                                         ||  Number of clauses:            9849                                         ||  Parse time:                   0.25 s                                       ||                                                                             |============================[ Search Statistics ]==============================| Conflicts |          ORIGINAL         |          LEARNT          | Progress ||           |    Vars  Clauses Literals |    Limit  Clauses Lit/Cl |          |===============================================================================|       100 |    1591     6054   379315 |     2219      100     53 | 62.501 % |===============================================================================restarts              : 2conflicts             : 147            (364 /sec)decisions             : 319            (0.00 % random) (790 /sec)propagations          : 9952           (24634 /sec)conflict literals     : 9431           (95.44 % deleted)CPU time              : 0.404 sSATISFIABLE